90 4005
1 2 111
1 3 241
1 4 143
1 5 240
1 6 31
1 7 39
1 8 7
1 9 238
1 10 17
1 11 41
1 12 184
1 13 266
1 14 131
1 15 262
1 16 166
1 17 185
1 18 30
1 19 237
1 20 229
1 21 32
1 22 166
1 23 2
1 24 44
1 25 141
1 26 56
1 27 234
1 28 49
1 29 60
1 30 8
1 31 63
1 32 26
1 33 91
1 34 110
1 35 202
1 36 2
1 37 177
1 38 72
1 39 192
1 40 228
1 41 36
1 42 27
1 43 179
1 44 141
1 45 104
1 46 21
1 47 12
1 48 145
1 49 212
1 50 89
1 51 131
1 52 74
1 53 141
1 54 262
1 55 45
1 56 253
1 57 110
1 58 43
1 59 24
1 60 195
1 61 10
1 62 184
1 63 178
1 64 129
1 65 224
1 66 40
1 67 194
1 68 241
1 69 106
1 70 228
1 71 195
1 72 246
1 73 66
1 74 248
1 75 206
1 76 163
1 77 115
1 78 89
1 79 184
1 80 244
1 81 186
1 82 162
1 83 66
1 84 253
1 85 233
1 86 5
1 87 194
1 88 157
1 89 160
1 90 249
2 3 266
2 4 220
2 5 193
2 6 120
2 7 257
2 8 21
2 9 55
2 10 59
2 11 90
2 12 18
2 13 170
2 14 230
2 15 96
2 16 249
2 17 233
2 18 146
2 19 32
2 20 186
2 21 39
2 22 193
2 23 1
2 24 67
2 25 57
2 26 103
2 27 127
2 28 231
2 29 83
2 30 66
2 31 126
2 32 218
2 33 2
2 34 87
2 35 85
2 36 104
2 37 18
2 38 239
2 39 264
2 40 178
2 41 22
2 42 205
2 43 131
2 44 75
2 45 152
2 46 117
2 47 123
2 48 217
2 49 260
2 50 175
2 51 34
2 52 249
2 53 24
2 54 77
2 55 31
2 56 26
2 57 98
2 58 245
2 59 164
2 60 93
2 61 174
2 62 168
2 63 69
2 64 198
2 65 265
2 66 55
2 67 163
2 68 252
2 69 119
2 70 140
2 71 77
2 72 179
2 73 8
2 74 43
2 75 148
2 76 10
2 77 26
2 78 166
2 79 219
2 80 128
2 81 0
2 82 147
2 83 196
2 84 128
2 85 208
2 86 88
2 87 47
2 88 23
2 89 1
2 90 47
3 4 170
3 5 104
3 6 46
3 7 74
3 8 158
3 9 155
3 10 116
3 11 84
3 12 96
3 13 155
3 14 162
3 15 100
3 16 15
3 17 218
3 18 149
3 19 37
3 20 200
3 21 116
3 22 65
3 23 217
3 24 172
3 25 128
3 26 137
3 27 186
3 28 218
3 29 262
3 30 171
3 31 262
3 32 22
3 33 243
3 34 84
3 35 92
3 36 234
3 37 240
3 38 61
3 39 268
3 40 118
3 41 266
3 42 98
3 43 157
3 44 206
3 45 24
3 46 245
3 47 263
3 48 85
3 49 90
3 50 258
3 51 178
3 52 93
3 53 161
3 54 37
3 55 182
3 56 32
3 57 110
3 58 162
3 59 119
3 60 101
3 61 267
3 62 119
3 63 103
3 64 176
3 65 45
3 66 182
3 67 215
3 68 85
3 69 4
3 70 150
3 71 222
3 72 141
3 73 86
3 74 256
3 75 259
3 76 4
3 77 100
3 78 3
3 79 152
3 80 187
3 81 267
3 82 79
3 83 221
3 84 142
3 85 255
3 86 159
3 87 49
3 88 199
3 89 167
3 90 28
4 5 79
4 6 124
4 7 197
4 8 7
4 9 72
4 10 64
4 11 61
4 12 85
4 13 8
4 14 128
4 15 16
4 16 113
4 17 87
4 18 82
4 19 115
4 20 5
4 21 133
4 22 254
4 23 158
4 24 51
4 25 148
4 26 265
4 27 174
4 28 175
4 29 38
4 30 63
4 31 123
4 32 185
4 33 91
4 34 141
4 35 16
4 36 95
4 37 50
4 38 214
4 39 130
4 40 92
4 41 159
4 42 194
4 43 237
4 44 42
4 45 38
4 46 159
4 47 257
4 48 108
4 49 269
4 50 20
4 51 46
4 52 225
4 53 102
4 54 4
4 55 20
4 56 233
4 57 252
4 58 101
4 59 30
4 60 251
4 61 266
4 62 127
4 63 43
4 64 3
4 65 60
4 66 32
4 67 144
4 68 258
4 69 11
4 70 91
4 71 73
4 72 29
4 73 49
4 74 205
4 75 97
4 76 154
4 77 109
4 78 147
4 79 178
4 80 39
4 81 13
4 82 219
4 83 101
4 84 183
4 85 148
4 86 126
4 87 163
4 88 177
4 89 83
4 90 59
5 6 73
5 7 149
5 8 24
5 9 240
5 10 190
5 11 87
5 12 177
5 13 228
5 14 266
5 15 96
5 16 206
5 17 64
5 18 41
5 19 49
5 20 149
5 21 49
5 22 65
5 23 92
5 24 166
5 25 50
5 26 62
5 27 164
5 28 245
5 29 153
5 30 227
5 31 243
5 32 173
5 33 23
5 34 264
5 35 194
5 36 18
5 37 177
5 38 5
5 39 65
5 40 195
5 41 260
5 42 31
5 43 116
5 44 145
5 45 35
5 46 12
5 47 262
5 48 162
5 49 32
5 50 60
5 51 133
5 52 254
5 53 164
5 54 159
5 55 138
5 56 239
5 57 256
5 58 262
5 59 97
5 60 128
5 61 119
5 62 83
5 63 17
5 64 27
5 65 94
5 66 84
5 67 65
5 68 131
5 69 75
5 70 202
5 71 252
5 72 247
5 73 74
5 74 42
5 75 80
5 76 187
5 77 125
5 78 250
5 79 181
5 80 183
5 81 9
5 82 160
5 83 228
5 84 21
5 85 197
5 86 146
5 87 163
5 88 13
5 89 93
5 90 37
6 7 213
6 8 193
6 9 213
6 10 239
6 11 162
6 12 157
6 13 84
6 14 121
6 15 3
6 16 70
6 17 49
6 18 50
6 19 112
6 20 6
6 21 109
6 22 122
6 23 122
6 24 156
6 25 39
6 26 80
6 27 93
6 28 269
6 29 121
6 30 148
6 31 256
6 32 213
6 33 223
6 34 5
6 35 66
6 36 34
6 37 230
6 38 7
6 39 9
6 40 150
6 41 16
6 42 9
6 43 81
6 44 196
6 45 61
6 46 263
6 47 209
6 48 107
6 49 238
6 50 205
6 51 75
6 52 106
6 53 228
6 54 102
6 55 250
6 56 102
6 57 135
6 58 166
6 59 102
6 60 266
6 61 235
6 62 124
6 63 264
6 64 135
6 65 24
6 66 45
6 67 70
6 68 61
6 69 258
6 70 194
6 71 49
6 72 163
6 73 201
6 74 43
6 75 179
6 76 143
6 77 180
6 78 19
6 79 51
6 80 247
6 81 43
6 82 132
6 83 183
6 84 117
6 85 181
6 86 97
6 87 158
6 88 167
6 89 55
6 90 73
7 8 88
7 9 88
7 10 159
7 11 68
7 12 27
7 13 182
7 14 1
7 15 242
7 16 185
7 17 140
7 18 232
7 19 17
7 20 144
7 21 264
7 22 201
7 23 160
7 24 226
7 25 59
7 26 2
7 27 3
7 28 221
7 29 157
7 30 140
7 31 8
7 32 160
7 33 251
7 34 53
7 35 146
7 36 82
7 37 236
7 38 134
7 39 220
7 40 4
7 41 236
7 42 80
7 43 74
7 44 258
7 45 161
7 46 202
7 47 170
7 48 108
7 49 141
7 50 193
7 51 177
7 52 225
7 53 62
7 54 112
7 55 56
7 56 199
7 57 102
7 58 138
7 59 215
7 60 231
7 61 152
7 62 164
7 63 65
7 64 165
7 65 223
7 66 249
7 67 254
7 68 1
7 69 188
7 70 268
7 71 212
7 72 147
7 73 81
7 74 11
7 75 188
7 76 90
7 77 92
7 78 181
7 79 53
7 80 30
7 81 92
7 82 127
7 83 150
7 84 124
7 85 19
7 86 100
7 87 87
7 88 215
7 89 255
7 90 82
8 9 254
8 10 75
8 11 92
8 12 36
8 13 42
8 14 217
8 15 39
8 16 35
8 17 136
8 18 30
8 19 242
8 20 80
8 21 21
8 22 5
8 23 246
8 24 109
8 25 156
8 26 252
8 27 58
8 28 34
8 29 120
8 30 155
8 31 66
8 32 130
8 33 264
8 34 211
8 35 260
8 36 16
8 37 154
8 38 7
8 39 89
8 40 208
8 41 185
8 42 134
8 43 268
8 44 46
8 45 102
8 46 249
8 47 235
8 48 168
8 49 39
8 50 133
8 51 252
8 52 187
8 53 178
8 54 71
8 55 183
8 56 12
8 57 3
8 58 54
8 59 71
8 60 198
8 61 101
8 62 219
8 63 147
8 64 213
8 65 103
8 66 13
8 67 8
8 68 180
8 69 185
8 70 165
8 71 210
8 72 23
8 73 268
8 74 24
8 75 206
8 76 202
8 77 263
8 78 123
8 79 216
8 80 135
8 81 105
8 82 62
8 83 181
8 84 217
8 85 119
8 86 188
8 87 65
8 88 213
8 89 221
8 90 19
9 10 36
9 11 16
9 12 53
9 13 161
9 14 187
9 15 176
9 16 236
9 17 242
9 18 222
9 19 179
9 20 266
9 21 57
9 22 93
9 23 73
9 24 262
9 25 122
9 26 74
9 27 211
9 28 154
9 29 246
9 30 257
9 31 98
9 32 231
9 33 263
9 34 219
9 35 105
9 36 162
9 37 147
9 38 239
9 39 70
9 40 16
9 41 10
9 42 118
9 43 77
9 44 174
9 45 254
9 46 202
9 47 262
9 48 53
9 49 16
9 50 190
9 51 203
9 52 88
9 53 14
9 54 211
9 55 152
9 56 111
9 57 16
9 58 213
9 59 197
9 60 37
9 61 131
9 62 145
9 63 179
9 64 53
9 65 82
9 66 118
9 67 92
9 68 118
9 69 143
9 70 219
9 71 142
9 72 180
9 73 70
9 74 103
9 75 196
9 76 230
9 77 28
9 78 76
9 79 196
9 80 88
9 81 208
9 82 110
9 83 15
9 84 74
9 85 258
9 86 253
9 87 151
9 88 26
9 89 174
9 90 260
10 11 71
10 12 39
10 13 234
10 14 156
10 15 16
10 16 153
10 17 101
10 18 243
10 19 9
10 20 47
10 21 182
10 22 233
10 23 211
10 24 19
10 25 125
10 26 182
10 27 209
10 28 96
10 29 212
10 30 234
10 31 182
10 32 71
10 33 68
10 34 27
10 35 105
10 36 30
10 37 195
10 38 135
10 39 106
10 40 102
10 41 239
10 42 190
10 43 265
10 44 220
10 45 145
10 46 23
10 47 257
10 48 106
10 49 223
10 50 67
10 51 173
10 52 171
10 53 212
10 54 237
10 55 90
10 56 222
10 57 213
10 58 129
10 59 46
10 60 244
10 61 236
10 62 60
10 63 39
10 64 146
10 65 20
10 66 20
10 67 191
10 68 178
10 69 73
10 70 140
10 71 56
10 72 95
10 73 239
10 74 230
10 75 226
10 76 241
10 77 204
10 78 123
10 79 170
10 80 194
10 81 63
10 82 130
10 83 144
10 84 253
10 85 25
10 86 2
10 87 16
10 88 157
10 89 50
10 90 8
11 12 222
11 13 145
11 14 191
11 15 172
11 16 164
11 17 248
11 18 71
11 19 265
11 20 45
11 21 24
11 22 253
11 23 137
11 24 90
11 25 77
11 26 259
11 27 236
11 28 138
11 29 121
11 30 234
11 31 15
11 32 242
11 33 266
11 34 177
11 35 76
11 36 259
11 37 2
11 38 127
11 39 102
11 40 33
11 41 4
11 42 218
11 43 156
11 44 200
11 45 192
11 46 251
11 47 215
11 48 162
11 49 168
11 50 50
11 51 64
11 52 241
11 53 182
11 54 22
11 55 192
11 56 252
11 57 143
11 58 14
11 59 189
11 60 195
11 61 116
11 62 5
11 63 153
11 64 169
11 65 149
11 66 205
11 67 195
11 68 26
11 69 14
11 70 249
11 71 105
11 72 237
11 73 45
11 74 231
11 75 257
11 76 111
11 77 250
11 78 87
11 79 23
11 80 147
11 81 56
11 82 16
11 83 250
11 84 181
11 85 12
11 86 32
11 87 181
11 88 73
11 89 90
11 90 9
12 13 197
12 14 4
12 15 10
12 16 250
12 17 94
12 18 159
12 19 116
12 20 99
12 21 49
12 22 2
12 23 248
12 24 133
12 25 15
12 26 39
12 27 224
12 28 228
12 29 258
12 30 264
12 31 212
12 32 208
12 33 30
12 34 134
12 35 93
12 36 174
12 37 88
12 38 237
12 39 8
12 40 14
12 41 123
12 42 222
12 43 67
12 44 64
12 45 257
12 46 13
12 47 214
12 48 249
12 49 189
12 50 139
12 51 128
12 52 61
12 53 43
12 54 83
12 55 166
12 56 63
12 57 56
12 58 8
12 59 199
12 60 5
12 61 78
12 62 14
12 63 107
12 64 183
12 65 166
12 66 46
12 67 194
12 68 142
12 69 180
12 70 232
12 71 172
12 72 249
12 73 222
12 74 268
12 75 126
12 76 125
12 77 120
12 78 212
12 79 229
12 80 11
12 81 267
12 82 227
12 83 48
12 84 112
12 85 229
12 86 26
12 87 99
12 88 97
12 89 153
12 90 216
13 14 230
13 15 163
13 16 208
13 17 50
13 18 150
13 19 249
13 20 122
13 21 169
13 22 124
13 23 5
13 24 111
13 25 59
13 26 230
13 27 89
13 28 173
13 29 173
13 30 207
13 31 242
13 32 251
13 33 134
13 34 75
13 35 167
13 36 106
13 37 189
13 38 188
13 39 228
13 40 129
13 41 197
13 42 258
13 43 70
13 44 116
13 45 238
13 46 152
13 47 69
13 48 182
13 49 178
13 50 60
13 51 167
13 52 158
13 53 57
13 54 125
13 55 10
13 56 9
13 57 105
13 58 77
13 59 16
13 60 148
13 61 31
13 62 267
13 63 40
13 64 229
13 65 216
13 66 211
13 67 35
13 68 133
13 69 93
13 70 88
13 71 211
13 72 78
13 73 200
13 74 70
13 75 239
13 76 249
13 77 40
13 78 247
13 79 121
13 80 123
13 81 206
13 82 120
13 83 24
13 84 49
13 85 176
13 86 244
13 87 190
13 88 75
13 89 243
13 90 133
14 15 160
14 16 150
14 17 139
14 18 204
14 19 194
14 20 69
14 21 118
14 22 210
14 23 253
14 24 50
14 25 208
14 26 202
14 27 4
14 28 146
14 29 139
14 30 74
14 31 73
14 32 211
14 33 225
14 34 204
14 35 213
14 36 120
14 37 34
14 38 13
14 39 63
14 40 65
14 41 69
14 42 29
14 43 80
14 44 222
14 45 153
14 46 43
14 47 180
14 48 207
14 49 84
14 50 240
14 51 175
14 52 132
14 53 96
14 54 250
14 55 214
14 56 7
14 57 109
14 58 102
14 59 52
14 60 8
14 61 57
14 62 30
14 63 32
14 64 166
14 65 72
14 66 239
14 67 68
14 68 237
14 69 223
14 70 42
14 71 16
14 72 4
14 73 162
14 74 158
14 75 136
14 76 69
14 77 126
14 78 156
14 79 50
14 80 228
14 81 146
14 82 25
14 83 253
14 84 257
14 85 61
14 86 119
14 87 244
14 88 263
14 89 234
14 90 229
15 16 258
15 17 12
15 18 91
15 19 216
15 20 257
15 21 187
15 22 9
15 23 13
15 24 212
15 25 102
15 26 0
15 27 53
15 28 25
15 29 14
15 30 250
15 31 13
15 32 156
15 33 104
15 34 244
15 35 167
15 36 118
15 37 55
15 38 175
15 39 141
15 40 207
15 41 213
15 42 3
15 43 63
15 44 198
15 45 81
15 46 263
15 47 202
15 48 263
15 49 159
15 50 247
15 51 28
15 52 243
15 53 154
15 54 134
15 55 190
15 56 114
15 57 93
15 58 253
15 59 40
15 60 231
15 61 136
15 62 49
15 63 25
15 64 145
15 65 147
15 66 8
15 67 175
15 68 231
15 69 3
15 70 142
15 71 257
15 72 26
15 73 236
15 74 233
15 75 142
15 76 173
15 77 50
15 78 145
15 79 254
15 80 70
15 81 135
15 82 224
15 83 71
15 84 19
15 85 261
15 86 112
15 87 67
15 88 54
15 89 71
15 90 175
16 17 129
16 18 248
16 19 258
16 20 37
16 21 213
16 22 128
16 23 149
16 24 81
16 25 115
16 26 137
16 27 45
16 28 258
16 29 26
16 30 202
16 31 39
16 32 150
16 33 94
16 34 252
16 35 87
16 36 213
16 37 203
16 38 172
16 39 199
16 40 243
16 41 185
16 42 83
16 43 105
16 44 250
16 45 144
16 46 96
16 47 78
16 48 200
16 49 17
16 50 29
16 51 163
16 52 197
16 53 119
16 54 133
16 55 53
16 56 50
16 57 104
16 58 136
16 59 25
16 60 76
16 61 189
16 62 269
16 63 185
16 64 240
16 65 118
16 66 190
16 67 1
16 68 36
16 69 146
16 70 7
16 71 4
16 72 110
16 73 8
16 74 218
16 75 3
16 76 9
16 77 44
16 78 252
16 79 21
16 80 143
16 81 150
16 82 201
16 83 85
16 84 58
16 85 224
16 86 145
16 87 189
16 88 156
16 89 86
16 90 44
17 18 260
17 19 166
17 20 178
17 21 179
17 22 59
17 23 36
17 24 204
17 25 95
17 26 127
17 27 150
17 28 230
17 29 189
17 30 148
17 31 121
17 32 80
17 33 108
17 34 186
17 35 124
17 36 18
17 37 112
17 38 92
17 39 5
17 40 199
17 41 66
17 42 208
17 43 2
17 44 72
17 45 259
17 46 103
17 47 46
17 48 263
17 49 184
17 50 177
17 51 258
17 52 42
17 53 172
17 54 244
17 55 190
17 56 266
17 57 15
17 58 2
17 59 198
17 60 99
17 61 117
17 62 80
17 63 250
17 64 143
17 65 240
17 66 4
17 67 257
17 68 219
17 69 261
17 70 226
17 71 52
17 72 100
17 73 38
17 74 74
17 75 161
17 76 207
17 77 76
17 78 59
17 79 220
17 80 59
17 81 217
17 82 149
17 83 219
17 84 67
17 85 66
17 86 244
17 87 197
17 88 78
17 89 102
17 90 53
18 19 42
18 20 250
18 21 260
18 22 170
18 23 82
18 24 126
18 25 121
18 26 75
18 27 221
18 28 230
18 29 165
18 30 206
18 31 56
18 32 149
18 33 97
18 34 100
18 35 123
18 36 100
18 37 67
18 38 168
18 39 119
18 40 217
18 41 152
18 42 83
18 43 227
18 44 9
18 45 169
18 46 233
18 47 34
18 48 19
18 49 6
18 50 120
18 51 13
18 52 199
18 53 97
18 54 137
18 55 201
18 56 122
18 57 10
18 58 1
18 59 34
18 60 217
18 61 81
18 62 37
18 63 87
18 64 204
18 65 113
18 66 229
18 67 74
18 68 183
18 69 58
18 70 31
18 71 53
18 72 252
18 73 39
18 74 82
18 75 133
18 76 132
18 77 126
18 78 127
18 79 216
18 80 36
18 81 250
18 82 60
18 83 105
18 84 6
18 85 174
18 86 86
18 87 143
18 88 207
18 89 159
18 90 127
19 20 269
19 21 91
19 22 252
19 23 253
19 24 197
19 25 16
19 26 18
19 27 208
19 28 14
19 29 217
19 30 221
19 31 200
19 32 254
19 33 55
19 34 29
19 35 21
19 36 153
19 37 6
19 38 175
19 39 224
19 40 27
19 41 105
19 42 218
19 43 224
19 44 187
19 45 55
19 46 161
19 47 266
19 48 268
19 49 53
19 50 114
19 51 246
19 52 165
19 53 105
19 54 200
19 55 36
19 56 78
19 57 130
19 58 106
19 59 104
19 60 94
19 61 217
19 62 211
19 63 221
19 64 250
19 65 142
19 66 268
19 67 225
19 68 240
19 69 79
19 70 77
19 71 111
19 72 5
19 73 38
19 74 227
19 75 173
19 76 16
19 77 158
19 78 28
19 79 89
19 80 42
19 81 22
19 82 17
19 83 48
19 84 223
19 85 144
19 86 246
19 87 108
19 88 213
19 89 202
19 90 225
20 21 224
20 22 78
20 23 198
20 24 155
20 25 107
20 26 237
20 27 79
20 28 89
20 29 157
20 30 15
20 31 134
20 32 20
20 33 6
20 34 84
20 35 220
20 36 15
20 37 78
20 38 83
20 39 208
20 40 115
20 41 30
20 42 77
20 43 64
20 44 170
20 45 71
20 46 189
20 47 243
20 48 73
20 49 197
20 50 20
20 51 215
20 52 87
20 53 102
20 54 189
20 55 65
20 56 97
20 57 8
20 58 57
20 59 44
20 60 103
20 61 212
20 62 264
20 63 256
20 64 130
20 65 30
20 66 91
20 67 19
20 68 88
20 69 167
20 70 56
20 71 160
20 72 257
20 73 162
20 74 127
20 75 8
20 76 210
20 77 219
20 78 68
20 79 66
20 80 181
20 81 79
20 82 238
20 83 224
20 84 267
20 85 183
20 86 58
20 87 237
20 88 227
20 89 206
20 90 220
21 22 101
21 23 228
21 24 227
21 25 3
21 26 145
21 27 168
21 28 71
21 29 157
21 30 127
21 31 241
21 32 41
21 33 105
21 34 69
21 35 99
21 36 195
21 37 250
21 38 150
21 39 264
21 40 98
21 41 49
21 42 88
21 43 81
21 44 196
21 45 193
21 46 75
21 47 213
21 48 30
21 49 15
21 50 219
21 51 121
21 52 210
21 53 123
21 54 264
21 55 73
21 56 1
21 57 103
21 58 46
21 59 243
21 60 100
21 61 169
21 62 112
21 63 73
21 64 121
21 65 92
21 66 247
21 67 55
21 68 189
21 69 135
21 70 149
21 71 16
21 72 249
21 73 207
21 74 222
21 75 259
21 76 59
21 77 226
21 78 128
21 79 51
21 80 6
21 81 43
21 82 235
21 83 117
21 84 54
21 85 142
21 86 219
21 87 267
21 88 201
21 89 136
21 90 122
22 23 237
22 24 27
22 25 60
22 26 186
22 27 262
22 28 133
22 29 219
22 30 161
22 31 10
22 32 239
22 33 255
22 34 160
22 35 160
22 36 146
22 37 167
22 38 195
22 39 2
22 40 221
22 41 53
22 42 9
22 43 125
22 44 212
22 45 60
22 46 29
22 47 31
22 48 269
22 49 262
22 50 136
22 51 58
22 52 211
22 53 79
22 54 171
22 55 127
22 56 32
22 57 253
22 58 220
22 59 179
22 60 34
22 61 44
22 62 168
22 63 102
22 64 108
22 65 216
22 66 221
22 67 233
22 68 256
22 69 40
22 70 109
22 71 12
22 72 23
22 73 94
22 74 176
22 75 222
22 76 61
22 77 129
22 78 237
22 79 73
22 80 112
22 81 268
22 82 201
22 83 171
22 84 169
22 85 48
22 86 95
22 87 162
22 88 259
22 89 190
22 90 269
23 24 102
23 25 214
23 26 267
23 27 195
23 28 90
23 29 159
23 30 33
23 31 83
23 32 212
23 33 139
23 34 227
23 35 240
23 36 63
23 37 262
23 38 82
23 39 129
23 40 204
23 41 148
23 42 221
23 43 245
23 44 222
23 45 111
23 46 78
23 47 58
23 48 33
23 49 36
23 50 213
23 51 183
23 52 252
23 53 123
23 54 66
23 55 111
23 56 111
23 57 113
23 58 131
23 59 135
23 60 56
23 61 21
23 62 182
23 63 215
23 64 189
23 65 178
23 66 119
23 67 61
23 68 89
23 69 68
23 70 34
23 71 30
23 72 54
23 73 260
23 74 31
23 75 256
23 76 263
23 77 103
23 78 88
23 79 33
23 80 206
23 81 7
23 82 14
23 83 197
23 84 79
23 85 166
23 86 55
23 87 161
23 88 19
23 89 19
23 90 182
24 25 46
24 26 252
24 27 225
24 28 121
24 29 116
24 30 164
24 31 108
24 32 46
24 33 235
24 34 27
24 35 237
24 36 68
24 37 163
24 38 210
24 39 167
24 40 210
24 41 135
24 42 108
24 43 0
24 44 242
24 45 100
24 46 104
24 47 139
24 48 82
24 49 168
24 50 67
24 51 135
24 52 72
24 53 70
24 54 18
24 55 86
24 56 85
24 57 148
24 58 241
24 59 154
24 60 184
24 61 239
24 62 184
24 63 132
24 64 138
24 65 223
24 66 127
24 67 54
24 68 257
24 69 192
24 70 249
24 71 226
24 72 73
24 73 257
24 74 209
24 75 81
24 76 268
24 77 75
24 78 264
24 79 82
24 80 22
24 81 105
24 82 96
24 83 194
24 84 126
24 85 109
24 86 267
24 87 201
24 88 164
24 89 133
24 90 253
25 26 8
25 27 86
25 28 123
25 29 30
25 30 120
25 31 124
25 32 163
25 33 80
25 34 178
25 35 63
25 36 219
25 37 137
25 38 77
25 39 115
25 40 104
25 41 140
25 42 46
25 43 55
25 44 123
25 45 79
25 46 139
25 47 106
25 48 89
25 49 108
25 50 160
25 51 160
25 52 149
25 53 223
25 54 0
25 55 224
25 56 83
25 57 46
25 58 101
25 59 158
25 60 152
25 61 197
25 62 185
25 63 216
25 64 199
25 65 225
25 66 208
25 67 146
25 68 205
25 69 173
25 70 236
25 71 149
25 72 85
25 73 262
25 74 173
25 75 110
25 76 2
25 77 188
25 78 65
25 79 49
25 80 123
25 81 90
25 82 56
25 83 49
25 84 3
25 85 192
25 86 266
25 87 229
25 88 147
25 89 209
25 90 251
26 27 162
26 28 90
26 29 142
26 30 92
26 31 15
26 32 103
26 33 102
26 34 168
26 35 129
26 36 54
26 37 106
26 38 81
26 39 0
26 40 114
26 41 93
26 42 159
26 43 122
26 44 100
26 45 65
26 46 144
26 47 228
26 48 251
26 49 266
26 50 88
26 51 94
26 52 187
26 53 196
26 54 54
26 55 46
26 56 134
26 57 164
26 58 27
26 59 148
26 60 198
26 61 107
26 62 177
26 63 264
26 64 212
26 65 196
26 66 67
26 67 113
26 68 141
26 69 115
26 70 243
26 71 127
26 72 169
26 73 152
26 74 137
26 75 219
26 76 87
26 77 246
26 78 116
26 79 200
26 80 268
26 81 24
26 82 16
26 83 143
26 84 112
26 85 59
26 86 154
26 87 181
26 88 259
26 89 170
26 90 130
27 28 171
27 29 110
27 30 34
27 31 43
27 32 124
27 33 86
27 34 147
27 35 3
27 36 115
27 37 236
27 38 119
27 39 76
27 40 258
27 41 197
27 42 0
27 43 147
27 44 205
27 45 6
27 46 207
27 47 252
27 48 150
27 49 61
27 50 266
27 51 267
27 52 76
27 53 204
27 54 76
27 55 69
27 56 199
27 57 58
27 58 181
27 59 135
27 60 78
27 61 27
27 62 133
27 63 168
27 64 162
27 65 166
27 66 30
27 67 52
27 68 102
27 69 17
27 70 17
27 71 143
27 72 235
27 73 196
27 74 237
27 75 1
27 76 98
27 77 223
27 78 14
27 79 170
27 80 258
27 81 147
27 82 98
27 83 216
27 84 260
27 85 9
27 86 206
27 87 161
27 88 182
27 89 185
27 90 251
28 29 157
28 30 239
28 31 108
28 32 119
28 33 206
28 34 186
28 35 74
28 36 186
28 37 137
28 38 59
28 39 25
28 40 125
28 41 145
28 42 18
28 43 33
28 44 263
28 45 61
28 46 116
28 47 239
28 48 130
28 49 33
28 50 153
28 51 192
28 52 44
28 53 66
28 54 93
28 55 126
28 56 62
28 57 98
28 58 111
28 59 188
28 60 13
28 61 72
28 62 255
28 63 190
28 64 78
28 65 251
28 66 151
28 67 102
28 68 68
28 69 60
28 70 42
28 71 1
28 72 102
28 73 186
28 74 7
28 75 253
28 76 62
28 77 164
28 78 101
28 79 249
28 80 230
28 81 5
28 82 33
28 83 74
28 84 86
28 85 201
28 86 172
28 87 242
28 88 156
28 89 5
28 90 142
29 30 35
29 31 204
29 32 261
29 33 141
29 34 84
29 35 132
29 36 207
29 37 182
29 38 99
29 39 178
29 40 19
29 41 149
29 42 256
29 43 41
29 44 175
29 45 171
29 46 207
29 47 157
29 48 41
29 49 236
29 50 84
29 51 134
29 52 214
29 53 95
29 54 34
29 55 166
29 56 100
29 57 242
29 58 43
29 59 169
29 60 178
29 61 78
29 62 169
29 63 100
29 64 137
29 65 164
29 66 16
29 67 83
29 68 165
29 69 68
29 70 69
29 71 238
29 72 68
29 73 21
29 74 4
29 75 208
29 76 34
29 77 7
29 78 209
29 79 102
29 80 149
29 81 6
29 82 89
29 83 186
29 84 137
29 85 130
29 86 49
29 87 83
29 88 220
29 89 57
29 90 138
30 31 21
30 32 105
30 33 217
30 34 243
30 35 17
30 36 83
30 37 93
30 38 71
30 39 222
30 40 195
30 41 168
30 42 203
30 43 174
30 44 134
30 45 106
30 46 38
30 47 196
30 48 142
30 49 52
30 50 225
30 51 76
30 52 210
30 53 7
30 54 153
30 55 263
30 56 187
30 57 52
30 58 19
30 59 231
30 60 0
30 61 82
30 62 192
30 63 86
30 64 111
30 65 210
30 66 176
30 67 262
30 68 92
30 69 40
30 70 41
30 71 57
30 72 180
30 73 94
30 74 237
30 75 217
30 76 71
30 77 150
30 78 258
30 79 14
30 80 163
30 81 89
30 82 141
30 83 33
30 84 30
30 85 69
30 86 159
30 87 192
30 88 4
30 89 164
30 90 204
31 32 221
31 33 127
31 34 16
31 35 119
31 36 178
31 37 65
31 38 205
31 39 229
31 40 262
31 41 50
31 42 169
31 43 41
31 44 76
31 45 185
31 46 234
31 47 161
31 48 46
31 49 24
31 50 24
31 51 82
31 52 160
31 53 139
31 54 204
31 55 147
31 56 184
31 57 26
31 58 264
31 59 150
31 60 66
31 61 62
31 62 222
31 63 24
31 64 180
31 65 66
31 66 124
31 67 98
31 68 30
31 69 132
31 70 23
31 71 253
31 72 150
31 73 34
31 74 31
31 75 43
31 76 111
31 77 234
31 78 238
31 79 225
31 80 109
31 81 193
31 82 43
31 83 122
31 84 89
31 85 183
31 86 173
31 87 186
31 88 79
31 89 49
31 90 16
32 33 84
32 34 130
32 35 34
32 36 151
32 37 164
32 38 167
32 39 102
32 40 14
32 41 6
32 42 128
32 43 221
32 44 247
32 45 255
32 46 47
32 47 206
32 48 10
32 49 39
32 50 226
32 51 111
32 52 34
32 53 28
32 54 114
32 55 181
32 56 27
32 57 56
32 58 145
32 59 239
32 60 142
32 61 102
32 62 25
32 63 160
32 64 108
32 65 155
32 66 241
32 67 162
32 68 156
32 69 104
32 70 147
32 71 197
32 72 182
32 73 79
32 74 171
32 75 175
32 76 165
32 77 153
32 78 166
32 79 46
32 80 55
32 81 52
32 82 181
32 83 215
32 84 131
32 85 78
32 86 164
32 87 228
32 88 99
32 89 57
32 90 169
33 34 188
33 35 78
33 36 88
33 37 75
33 38 261
33 39 138
33 40 188
33 41 180
33 42 243
33 43 222
33 44 40
33 45 230
33 46 102
33 47 191
33 48 36
33 49 176
33 50 90
33 51 152
33 52 73
33 53 211
33 54 16
33 55 255
33 56 158
33 57 181
33 58 235
33 59 136
33 60 22
33 61 93
33 62 114
33 63 202
33 64 264
33 65 189
33 66 6
33 67 57
33 68 248
33 69 89
33 70 143
33 71 268
33 72 250
33 73 200
33 74 263
33 75 149
33 76 51
33 77 9
33 78 146
33 79 131
33 80 178
33 81 166
33 82 2
33 83 267
33 84 33
33 85 43
33 86 267
33 87 201
33 88 238
33 89 30
33 90 184
34 35 181
34 36 8
34 37 67
34 38 142
34 39 35
34 40 103
34 41 69
34 42 79
34 43 33
34 44 162
34 45 76
34 46 115
34 47 3
34 48 7
34 49 53
34 50 137
34 51 191
34 52 154
34 53 161
34 54 124
34 55 4
34 56 18
34 57 9
34 58 59
34 59 34
34 60 78
34 61 117
34 62 220
34 63 41
34 64 120
34 65 60
34 66 220
34 67 231
34 68 223
34 69 176
34 70 63
34 71 151
34 72 111
34 73 252
34 74 228
34 75 107
34 76 58
34 77 251
34 78 173
34 79 127
34 80 101
34 81 227
34 82 79
34 83 128
34 84 60
34 85 219
34 86 165
34 87 26
34 88 36
34 89 189
34 90 230
35 36 151
35 37 178
35 38 86
35 39 220
35 40 0
35 41 61
35 42 157
35 43 28
35 44 167
35 45 61
35 46 59
35 47 181
35 48 100
35 49 37
35 50 75
35 51 13
35 52 137
35 53 245
35 54 199
35 55 129
35 56 139
35 57 264
35 58 113
35 59 79
35 60 200
35 61 243
35 62 205
35 63 122
35 64 182
35 65 143
35 66 74
35 67 22
35 68 83
35 69 34
35 70 221
35 71 33
35 72 169
35 73 65
35 74 237
35 75 147
35 76 230
35 77 109
35 78 99
35 79 203
35 80 150
35 81 35
35 82 189
35 83 245
35 84 55
35 85 0
35 86 109
35 87 228
35 88 67
35 89 59
35 90 122
36 37 94
36 38 6
36 39 222
36 40 67
36 41 255
36 42 90
36 43 197
36 44 4
36 45 141
36 46 139
36 47 242
36 48 161
36 49 243
36 50 97
36 51 137
36 52 211
36 53 241
36 54 229
36 55 60
36 56 80
36 57 32
36 58 55
36 59 142
36 60 81
36 61 166
36 62 233
36 63 146
36 64 54
36 65 61
36 66 227
36 67 46
36 68 24
36 69 18
36 70 88
36 71 227
36 72 237
36 73 130
36 74 60
36 75 266
36 76 149
36 77 162
36 78 156
36 79 223
36 80 3
36 81 230
36 82 100
36 83 118
36 84 64
36 85 169
36 86 84
36 87 129
36 88 99
36 89 30
36 90 94
37 38 96
37 39 82
37 40 236
37 41 66
37 42 104
37 43 98
37 44 198
37 45 252
37 46 142
37 47 118
37 48 223
37 49 267
37 50 42
37 51 100
37 52 47
37 53 251
37 54 75
37 55 97
37 56 240
37 57 227
37 58 236
37 59 39
37 60 124
37 61 115
37 62 203
37 63 180
37 64 215
37 65 176
37 66 26
37 67 142
37 68 6
37 69 121
37 70 135
37 71 137
37 72 151
37 73 27
37 74 139
37 75 188
37 76 135
37 77 112
37 78 99
37 79 25
37 80 198
37 81 5
37 82 242
37 83 135
37 84 5
37 85 186
37 86 77
37 87 223
37 88 225
37 89 63
37 90 85
38 39 105
38 40 262
38 41 214
38 42 181
38 43 123
38 44 64
38 45 199
38 46 38
38 47 30
38 48 90
38 49 32
38 50 198
38 51 70
38 52 185
38 53 202
38 54 268
38 55 161
38 56 144
38 57 98
38 58 60
38 59 43
38 60 73
38 61 89
38 62 83
38 63 40
38 64 239
38 65 119
38 66 13
38 67 12
38 68 252
38 69 76
38 70 136
38 71 119
38 72 100
38 73 141
38 74 108
38 75 148
38 76 136
38 77 103
38 78 138
38 79 3
38 80 78
38 81 2
38 82 14
38 83 133
38 84 148
38 85 174
38 86 243
38 87 40
38 88 126
38 89 4
38 90 252
39 40 77
39 41 75
39 42 228
39 43 93
39 44 225
39 45 174
39 46 91
39 47 20
39 48 176
39 49 136
39 50 114
39 51 47
39 52 90
39 53 91
39 54 211
39 55 117
39 56 165
39 57 79
39 58 57
39 59 77
39 60 139
39 61 185
39 62 134
39 63 47
39 64 246
39 65 191
39 66 102
39 67 80
39 68 183
39 69 80
39 70 162
39 71 79
39 72 171
39 73 252
39 74 264
39 75 10
39 76 59
39 77 163
39 78 261
39 79 35
39 80 185
39 81 235
39 82 26
39 83 2
39 84 43
39 85 38
39 86 101
39 87 103
39 88 144
39 89 16
39 90 262
40 41 195
40 42 124
40 43 73
40 44 201
40 45 215
40 46 258
40 47 26
40 48 213
40 49 206
40 50 202
40 51 269
40 52 246
40 53 143
40 54 112
40 55 23
40 56 236
40 57 15
40 58 206
40 59 3
40 60 269
40 61 250
40 62 189
40 63 166
40 64 10
40 65 239
40 66 260
40 67 60
40 68 154
40 69 268
40 70 137
40 71 57
40 72 20
40 73 170
40 74 98
40 75 1
40 76 260
40 77 113
40 78 202
40 79 267
40 80 10
40 81 133
40 82 179
40 83 160
40 84 7
40 85 75
40 86 173
40 87 249
40 88 2
40 89 212
40 90 36
41 42 228
41 43 97
41 44 59
41 45 123
41 46 180
41 47 40
41 48 266
41 49 260
41 50 213
41 51 31
41 52 262
41 53 114
41 54 127
41 55 201
41 56 110
41 57 235
41 58 88
41 59 94
41 60 172
41 61 26
41 62 231
41 63 163
41 64 214
41 65 199
41 66 45
41 67 243
41 68 111
41 69 249
41 70 148
41 71 264
41 72 108
41 73 129
41 74 188
41 75 61
41 76 73
41 77 138
41 78 79
41 79 31
41 80 31
41 81 72
41 82 11
41 83 212
41 84 121
41 85 251
41 86 93
41 87 157
41 88 75
41 89 165
41 90 90
42 43 240
42 44 30
42 45 18
42 46 20
42 47 188
42 48 246
42 49 184
42 50 203
42 51 187
42 52 59
42 53 216
42 54 106
42 55 7
42 56 116
42 57 74
42 58 259
42 59 229
42 60 261
42 61 259
42 62 208
42 63 62
42 64 184
42 65 122
42 66 231
42 67 235
42 68 128
42 69 71
42 70 74
42 71 28
42 72 195
42 73 159
42 74 189
42 75 105
42 76 243
42 77 123
42 78 63
42 79 255
42 80 129
42 81 219
42 82 52
42 83 177
42 84 185
42 85 78
42 86 182
42 87 175
42 88 30
42 89 121
42 90 223
43 44 125
43 45 72
43 46 183
43 47 264
43 48 154
43 49 4
43 50 213
43 51 29
43 52 112
43 53 85
43 54 77
43 55 100
43 56 89
43 57 188
43 58 57
43 59 28
43 60 78
43 61 78
43 62 143
43 63 53
43 64 87
43 65 149
43 66 231
43 67 13
43 68 234
43 69 123
43 70 39
43 71 216
43 72 179
43 73 64
43 74 227
43 75 249
43 76 125
43 77 172
43 78 48
43 79 6
43 80 97
43 81 70
43 82 77
43 83 21
43 84 49
43 85 110
43 86 226
43 87 214
43 88 49
43 89 158
43 90 6
44 45 136
44 46 261
44 47 151
44 48 235
44 49 116
44 50 229
44 51 109
44 52 260
44 53 208
44 54 145
44 55 18
44 56 153
44 57 96
44 58 138
44 59 149
44 60 230
44 61 112
44 62 247
44 63 56
44 64 9
44 65 240
44 66 201
44 67 70
44 68 198
44 69 257
44 70 266
44 71 42
44 72 256
44 73 49
44 74 66
44 75 15
44 76 176
44 77 52
44 78 1
44 79 21
44 80 179
44 81 198
44 82 21
44 83 80
44 84 25
44 85 257
44 86 180
44 87 17
44 88 269
44 89 216
44 90 159
45 46 28
45 47 168
45 48 253
45 49 254
45 50 190
45 51 141
45 52 106
45 53 197
45 54 28
45 55 237
45 56 156
45 57 211
45 58 164
45 59 243
45 60 266
45 61 33
45 62 56
45 63 182
45 64 264
45 65 130
45 66 214
45 67 123
45 68 90
45 69 202
45 70 122
45 71 111
45 72 219
45 73 56
45 74 224
45 75 110
45 76 211
45 77 165
45 78 153
45 79 12
45 80 248
45 81 83
45 82 0
45 83 240
45 84 10
45 85 181
45 86 236
45 87 127
45 88 4
45 89 217
45 90 165
46 47 163
46 48 49
46 49 185
46 50 106
46 51 104
46 52 24
46 53 50
46 54 89
46 55 95
46 56 225
46 57 249
46 58 82
46 59 23
46 60 77
46 61 267
46 62 126
46 63 138
46 64 159
46 65 59
46 66 261
46 67 9
46 68 144
46 69 241
46 70 93
46 71 38
46 72 144
46 73 93
46 74 241
46 75 171
46 76 81
46 77 67
46 78 16
46 79 186
46 80 77
46 81 198
46 82 27
46 83 142
46 84 99
46 85 131
46 86 20
46 87 188
46 88 168
46 89 95
46 90 180
47 48 23
47 49 77
47 50 197
47 51 264
47 52 221
47 53 38
47 54 223
47 55 128
47 56 172
47 57 51
47 58 106
47 59 188
47 60 107
47 61 171
47 62 183
47 63 191
47 64 4
47 65 158
47 66 32
47 67 71
47 68 64
47 69 194
47 70 150
47 71 95
47 72 200
47 73 241
47 74 176
47 75 125
47 76 234
47 77 78
47 78 123
47 79 74
47 80 23
47 81 122
47 82 19
47 83 247
47 84 212
47 85 193
47 86 102
47 87 264
47 88 227
47 89 254
47 90 28
48 49 4
48 50 70
48 51 165
48 52 241
48 53 34
48 54 198
48 55 236
48 56 191
48 57 86
48 58 79
48 59 133
48 60 117
48 61 141
48 62 141
48 63 167
48 64 9
48 65 229
48 66 221
48 67 101
48 68 89
48 69 141
48 70 219
48 71 93
48 72 35
48 73 189
48 74 79
48 75 194
48 76 172
48 77 89
48 78 191
48 79 89
48 80 198
48 81 266
48 82 198
48 83 204
48 84 37
48 85 121
48 86 2
48 87 232
48 88 226
48 89 160
48 90 128
49 50 9
49 51 67
49 52 71
49 53 1
49 54 31
49 55 218
49 56 43
49 57 2
49 58 138
49 59 181
49 60 42
49 61 149
49 62 100
49 63 234
49 64 251
49 65 238
49 66 33
49 67 228
49 68 83
49 69 148
49 70 74
49 71 121
49 72 50
49 73 117
49 74 113
49 75 89
49 76 33
49 77 246
49 78 245
49 79 146
49 80 54
49 81 149
49 82 133
49 83 222
49 84 218
49 85 249
49 86 134
49 87 33
49 88 235
49 89 176
49 90 90
50 51 17
50 52 83
50 53 20
50 54 191
50 55 207
50 56 17
50 57 195
50 58 229
50 59 231
50 60 267
50 61 140
50 62 169
50 63 214
50 64 128
50 65 14
50 66 113
50 67 128
50 68 5
50 69 7
50 70 172
50 71 58
50 72 61
50 73 169
50 74 17
50 75 145
50 76 103
50 77 224
50 78 15
50 79 81
50 80 264
50 81 43
50 82 30
50 83 102
50 84 175
50 85 167
50 86 43
50 87 200
50 88 235
50 89 98
50 90 1
51 52 220
51 53 256
51 54 33
51 55 64
51 56 264
51 57 17
51 58 216
51 59 250
51 60 98
51 61 6
51 62 99
51 63 94
51 64 159
51 65 112
51 66 186
51 67 192
51 68 208
51 69 93
51 70 61
51 71 147
51 72 217
51 73 133
51 74 79
51 75 12
51 76 85
51 77 203
51 78 22
51 79 187
51 80 139
51 81 134
51 82 252
51 83 95
51 84 164
51 85 204
51 86 218
51 87 20
51 88 186
51 89 153
51 90 82
52 53 264
52 54 198
52 55 67
52 56 102
52 57 220
52 58 53
52 59 237
52 60 190
52 61 204
52 62 6
52 63 269
52 64 201
52 65 9
52 66 256
52 67 227
52 68 85
52 69 101
52 70 244
52 71 95
52 72 92
52 73 7
52 74 16
52 75 164
52 76 147
52 77 247
52 78 47
52 79 36
52 80 186
52 81 230
52 82 89
52 83 14
52 84 146
52 85 79
52 86 230
52 87 131
52 88 240
52 89 191
52 90 143
53 54 72
53 55 27
53 56 125
53 57 9
53 58 150
53 59 29
53 60 66
53 61 111
53 62 98
53 63 171
53 64 3
53 65 201
53 66 129
53 67 11
53 68 180
53 69 126
53 70 258
53 71 123
53 72 254
53 73 54
53 74 87
53 75 196
53 76 97
53 77 114
53 78 5
53 79 269
53 80 59
53 81 21
53 82 242
53 83 67
53 84 116
53 85 105
53 86 159
53 87 255
53 88 114
53 89 110
53 90 113
54 55 116
54 56 4
54 57 136
54 58 124
54 59 181
54 60 61
54 61 236
54 62 182
54 63 106
54 64 105
54 65 28
54 66 239
54 67 24
54 68 191
54 69 117
54 70 38
54 71 174
54 72 12
54 73 253
54 74 59
54 75 196
54 76 94
54 77 6
54 78 45
54 79 262
54 80 82
54 81 22
54 82 236
54 83 46
54 84 77
54 85 228
54 86 102
54 87 168
54 88 105
54 89 213
54 90 161
55 56 224
55 57 157
55 58 151
55 59 202
55 60 115
55 61 127
55 62 229
55 63 134
55 64 187
55 65 159
55 66 209
55 67 202
55 68 160
55 69 201
55 70 165
55 71 190
55 72 207
55 73 205
55 74 218
55 75 80
55 76 68
55 77 230
55 78 110
55 79 255
55 80 85
55 81 144
55 82 187
55 83 196
55 84 206
55 85 56
55 86 106
55 87 167
55 88 119
55 89 138
55 90 260
56 57 261
56 58 75
56 59 236
56 60 186
56 61 243
56 62 123
56 63 46
56 64 222
56 65 59
56 66 183
56 67 70
56 68 135
56 69 149
56 70 175
56 71 14
56 72 159
56 73 30
56 74 253
56 75 30
56 76 56
56 77 136
56 78 179
56 79 259
56 80 186
56 81 72
56 82 13
56 83 23
56 84 192
56 85 0
56 86 190
56 87 0
56 88 44
56 89 60
56 90 125
57 58 89
57 59 132
57 60 230
57 61 188
57 62 82
57 63 152
57 64 209
57 65 35
57 66 172
57 67 52
57 68 4
57 69 256
57 70 221
57 71 231
57 72 237
57 73 251
57 74 12
57 75 44
57 76 103
57 77 176
57 78 99
57 79 190
57 80 186
57 81 193
57 82 72
57 83 203
57 84 69
57 85 249
57 86 187
57 87 23
57 88 180
57 89 222
57 90 141
58 59 147
58 60 130
58 61 183
58 62 233
58 63 29
58 64 56
58 65 46
58 66 261
58 67 56
58 68 6
58 69 164
58 70 161
58 71 216
58 72 133
58 73 145
58 74 123
58 75 163
58 76 149
58 77 252
58 78 52
58 79 124
58 80 81
58 81 169
58 82 208
58 83 238
58 84 89
58 85 224
58 86 188
58 87 238
58 88 92
58 89 159
58 90 106
59 60 42
59 61 25
59 62 232
59 63 150
59 64 42
59 65 32
59 66 112
59 67 231
59 68 190
59 69 264
59 70 54
59 71 105
59 72 9
59 73 68
59 74 226
59 75 215
59 76 204
59 77 81
59 78 122
59 79 261
59 80 114
59 81 207
59 82 177
59 83 25
59 84 71
59 85 210
59 86 212
59 87 175
59 88 134
59 89 265
59 90 77
60 61 167
60 62 102
60 63 24
60 64 259
60 65 13
60 66 213
60 67 92
60 68 109
60 69 135
60 70 225
60 71 47
60 72 9
60 73 194
60 74 60
60 75 175
60 76 183
60 77 94
60 78 183
60 79 254
60 80 131
60 81 7
60 82 157
60 83 193
60 84 257
60 85 98
60 86 156
60 87 5
60 88 157
60 89 74
60 90 103
61 62 68
61 63 117
61 64 71
61 65 87
61 66 252
61 67 134
61 68 204
61 69 101
61 70 19
61 71 97
61 72 51
61 73 214
61 74 2
61 75 7
61 76 263
61 77 249
61 78 263
61 79 216
61 80 254
61 81 180
61 82 71
61 83 124
61 84 58
61 85 246
61 86 225
61 87 10
61 88 129
61 89 225
61 90 195
62 63 187
62 64 199
62 65 139
62 66 269
62 67 24
62 68 95
62 69 154
62 70 185
62 71 120
62 72 265
62 73 264
62 74 114
62 75 0
62 76 155
62 77 259
62 78 231
62 79 152
62 80 177
62 81 213
62 82 257
62 83 128
62 84 264
62 85 61
62 86 210
62 87 69
62 88 228
62 89 73
62 90 20
63 64 192
63 65 123
63 66 230
63 67 53
63 68 115
63 69 189
63 70 103
63 71 228
63 72 76
63 73 27
63 74 269
63 75 12
63 76 207
63 77 49
63 78 241
63 79 97
63 80 11
63 81 127
63 82 58
63 83 67
63 84 76
63 85 265
63 86 234
63 87 19
63 88 22
63 89 147
63 90 230
64 65 221
64 66 96
64 67 264
64 68 26
64 69 103
64 70 157
64 71 210
64 72 240
64 73 143
64 74 202
64 75 131
64 76 43
64 77 156
64 78 198
64 79 214
64 80 224
64 81 240
64 82 97
64 83 226
64 84 55
64 85 38
64 86 196
64 87 108
64 88 199
64 89 22
64 90 246
65 66 223
65 67 127
65 68 176
65 69 29
65 70 50
65 71 55
65 72 155
65 73 220
65 74 84
65 75 43
65 76 266
65 77 248
65 78 119
65 79 208
65 80 199
65 81 247
65 82 156
65 83 46
65 84 66
65 85 168
65 86 39
65 87 79
65 88 49
65 89 82
65 90 199
66 67 99
66 68 62
66 69 67
66 70 87
66 71 139
66 72 8
66 73 90
66 74 239
66 75 177
66 76 187
66 77 180
66 78 51
66 79 37
66 80 120
66 81 229
66 82 260
66 83 197
66 84 245
66 85 22
66 86 114
66 87 127
66 88 100
66 89 155
66 90 55
67 68 138
67 69 117
67 70 123
67 71 93
67 72 82
67 73 61
67 74 27
67 75 74
67 76 66
67 77 137
67 78 97
67 79 246
67 80 98
67 81 152
67 82 168
67 83 143
67 84 210
67 85 162
67 86 12
67 87 67
67 88 227
67 89 20
67 90 182
68 69 180
68 70 25
68 71 154
68 72 231
68 73 228
68 74 158
68 75 1
68 76 53
68 77 253
68 78 130
68 79 169
68 80 232
68 81 66
68 82 120
68 83 71
68 84 143
68 85 244
68 86 19
68 87 131
68 88 0
68 89 83
68 90 232
69 70 248
69 71 225
69 72 206
69 73 198
69 74 196
69 75 83
69 76 178
69 77 210
69 78 3
69 79 6
69 80 46
69 81 109
69 82 239
69 83 80
69 84 214
69 85 84
69 86 61
69 87 183
69 88 123
69 89 150
69 90 242
70 71 242
70 72 94
70 73 151
70 74 65
70 75 122
70 76 201
70 77 148
70 78 234
70 79 5
70 80 267
70 81 189
70 82 200
70 83 240
70 84 133
70 85 268
70 86 61
70 87 216
70 88 47
70 89 268
70 90 79
71 72 13
71 73 91
71 74 25
71 75 127
71 76 210
71 77 153
71 78 106
71 79 116
71 80 262
71 81 201
71 82 112
71 83 24
71 84 163
71 85 177
71 86 160
71 87 243
71 88 6
71 89 136
71 90 251
72 73 11
72 74 78
72 75 87
72 76 265
72 77 31
72 78 180
72 79 73
72 80 20
72 81 141
72 82 7
72 83 169
72 84 259
72 85 163
72 86 216
72 87 141
72 88 65
72 89 120
72 90 207
73 74 147
73 75 5
73 76 71
73 77 140
73 78 236
73 79 75
73 80 91
73 81 154
73 82 212
73 83 149
73 84 231
73 85 39
73 86 92
73 87 218
73 88 160
73 89 111
73 90 237
74 75 120
74 76 10
74 77 121
74 78 215
74 79 74
74 80 220
74 81 105
74 82 118
74 83 231
74 84 205
74 85 252
74 86 237
74 87 173
74 88 223
74 89 107
74 90 109
75 76 42
75 77 191
75 78 43
75 79 129
75 80 67
75 81 18
75 82 48
75 83 161
75 84 232
75 85 16
75 86 93
75 87 39
75 88 31
75 89 260
75 90 150
76 77 164
76 78 234
76 79 76
76 80 142
76 81 100
76 82 94
76 83 12
76 84 265
76 85 156
76 86 48
76 87 229
76 88 9
76 89 142
76 90 26
77 78 59
77 79 126
77 80 211
77 81 91
77 82 45
77 83 2
77 84 36
77 85 11
77 86 160
77 87 190
77 88 6
77 89 79
77 90 30
78 79 115
78 80 56
78 81 132
78 82 103
78 83 17
78 84 182
78 85 84
78 86 111
78 87 220
78 88 167
78 89 199
78 90 198
79 80 120
79 81 249
79 82 193
79 83 132
79 84 181
79 85 65
79 86 209
79 87 228
79 88 113
79 89 53
79 90 240
80 81 0
80 82 218
80 83 71
80 84 250
80 85 172
80 86 86
80 87 57
80 88 79
80 89 121
80 90 53
81 82 263
81 83 54
81 84 26
81 85 214
81 86 39
81 87 165
81 88 155
81 89 71
81 90 253
82 83 79
82 84 29
82 85 226
82 86 212
82 87 129
82 88 110
82 89 164
82 90 182
83 84 13
83 85 154
83 86 74
83 87 187
83 88 23
83 89 132
83 90 226
84 85 195
84 86 268
84 87 46
84 88 96
84 89 127
84 90 249
85 86 140
85 87 50
85 88 216
85 89 147
85 90 166
86 87 151
86 88 262
86 89 124
86 90 260
87 88 27
87 89 241
87 90 171
88 89 17
88 90 87
89 90 72
